L=18;
no=8;
njo=[9,7,7,7,8,9,8,8];
djo=[10,12,12,10,10,13,11,10];
trab=[2,6,3,3,3,6,6,6,6,2,3,6,6,3,2,6,6,3,3,3,6,18,3,3,12,3,6,2,2,6,2,3,2,2,2,2,2,2,18,3,6,3,6,12,4,6,12,12,3,12,3,6,3,6,12,3,4,4,6,6,12,2,3,2,3,2,6,2,2,2,3,2,3,2,6,6,6,4,2,6,2,2,4,12,6,2,2,4];
nprec=10;
prec=[| 5, 11,
      | 12, 17,
      | 13, 18,
      | 17, 24,
      | 21, 27,
      | 25, 33,
      | 41, 51,
      | 42, 52,
      | 48, 62,
      | 54, 63 |];


%%%%%%%%%%%%%%%%%%%%%%%%%%%%%%%%%%%%%%%%%%%%%%%%%%%%%%%%%%%%%%%%%%%%%%
%  8
%
%  9   1   9  10  43
%  2   6   3   3   3   6   6   6   6   2 
%  1   1   1   0   0
%  1   2   2   0   0
%  1   3   3   0   0
%  1   4   4   0   0
%  1   5   5   0   1
%      2   2  11
%  1   6   6   0   0
%  1   7   7   0   0
%  1   8   8   0   0
%  1   9   9   0   0
%
%  7  10  16  12  65
%  3   6   6   3   2   6   6   3   3   3   6  18 
%  2   1  10   0   0
%  2   2  11   1   0
%      1   5   5
%  2   3  12   0   1
%      3   1  17
%  2   4  13   0   1
%      3   2  18
%  2   5  14   0   0
%  2   6  15   0   0
%  2   7  16   0   0
%
%  7  17  23  12  46
%  3   3  12   3   6   2   2   6   2   3   2   2 
%  3   1  17   1   1
%      2   3  12
%      4   1  24
%  3   2  18   1   0
%      2   4  13
%  3   3  19   0   0
%  3   4  20   0   0
%  3   5  21   0   1
%      4   4  27
%  3   6  22   0   0
%  3   7  23   0   0
%
%  7  24  30  10  56
%  2   2   2   2  18   3   6   3   6  12 
%  4   1  24   1   0
%      3   1  17
%  4   2  25   0   1
%      5   3  33
%  4   3  26   0   0
%  4   4  27   1   0
%      3   5  21
%  4   5  28   0   0
%  4   6  29   0   0
%  4   7  30   0   0
%
%  8  31  38  10  67
%  4   6  12  12   3  12   3   6   3   6 
%  5   1  31   0   0
%  5   2  32   0   0
%  5   3  33   1   0
%      4   2  25
%  5   4  34   0   0
%  5   5  35   0   0
%  5   6  36   0   0
%  5   7  37   0   0
%  5   8  38   0   0
%
%  9  39  47  13  65
% 12   3   4   4   6   6  12   2   3   2   3   2   6 
%  6   1  39   0   0
%  6   2  40   0   0
%  6   3  41   0   1
%      7   4  51
%  6   4  42   0   1
%      7   5  52
%  6   5  43   0   0
%  6   6  44   0   0
%  6   7  45   0   0
%  6   8  46   0   0
%  6   9  47   0   0
%
%  8  48  55  11  38
%  2   2   2   3   2   3   2   6   6   6   4 
%  7   1  48   0   1
%      8   7  62
%  7   2  49   0   0
%  7   3  50   0   0
%  7   4  51   1   0
%      6   3  41
%  7   5  52   1   0
%      6   4  42
%  7   6  53   0   0
%  7   7  54   0   1
%      8   8  63
%  7   8  55   0   0
%
%  8  56  63  10  42
%  2   6   2   2   4  12   6   2   2   4 
%  8   1  56   0   0
%  8   2  57   0   0
%  8   3  58   0   0
%  8   4  59   0   0
%  8   5  60   0   0
%  8   6  61   0   0
%  8   7  62   1   0
%      7   1  48
%  8   8  63   1   0
%      7   7  54
%
%174
